183 5
10 10 10 10 10 

0 0 0 0 0 0 1 2 
0 0 0 0 0 0 3 3 4 8 
10 0 4 0 0 0 2 7 5 
6 0 7 0 0 0 2 6 5 
8 0 6 0 0 0 4 12 11 10 9 
3 0 10 0 0 0 4 12 11 10 9 
10 0 7 0 0 0 3 11 10 9 
7 0 8 0 0 0 3 11 10 9 
7 0 10 0 0 0 1 13 
6 0 8 0 0 0 1 13 
9 0 5 0 0 0 1 13 
1 0 10 0 0 0 1 13 
0 0 0 0 0 0 4 14 26 38 50 
0 0 0 0 0 0 7 15 16 18 19 20 24 29 
7 0 0 0 0 7 2 22 21 
6 0 0 0 0 5 1 17 
8 0 0 0 0 5 1 21 
7 0 0 0 0 10 1 23 
7 0 0 0 0 10 1 22 
6 0 0 0 0 7 1 21 
9 0 0 0 0 8 1 25 
2 0 0 0 0 10 1 25 
9 0 0 0 0 8 1 25 
9 0 0 0 0 5 1 25 
0 0 0 0 0 0 1 62 
0 0 0 0 0 0 7 27 29 30 31 34 35 36 
5 0 0 0 2 0 1 28 
4 0 0 0 8 0 1 32 
6 0 0 0 10 0 1 33 
2 0 0 0 6 0 1 32 
7 0 0 0 10 0 1 32 
8 0 0 0 6 0 1 37 
9 0 0 0 8 0 2 37 170 
5 0 0 0 10 0 1 37 
6 0 0 0 10 0 1 37 
4 0 0 0 5 0 1 37 
0 0 0 0 0 0 1 62 
0 0 0 0 0 0 5 39 40 41 42 46 
8 0 9 0 0 0 2 45 43 
8 0 2 0 0 0 2 48 45 
4 0 9 0 0 0 2 48 44 
4 0 9 0 0 0 2 48 44 
3 0 10 0 0 0 2 48 47 
7 0 4 0 0 0 1 47 
3 0 10 0 0 0 2 47 107 
7 0 6 0 0 0 1 47 
3 0 10 0 0 0 1 49 
2 0 6 0 0 0 1 49 
0 0 0 0 0 0 1 62 
0 0 0 0 0 0 4 51 53 54 60 
9 0 0 2 0 0 3 58 57 52 
4 0 0 9 0 0 3 59 56 55 
9 0 0 9 0 0 3 58 56 55 
7 0 0 4 0 0 1 57 
5 0 0 9 0 0 1 61 
2 0 0 10 0 0 1 61 
10 0 0 6 0 0 1 61 
1 0 0 10 0 0 1 61 
1 0 0 7 0 0 1 61 
1 0 0 9 0 0 1 61 
0 0 0 0 0 0 1 62 
0 0 0 0 0 0 5 63 75 87 99 111 
0 0 0 0 0 0 5 64 65 67 72 73 
3 0 7 0 0 0 3 71 68 66 
2 0 6 0 0 0 2 70 68 
10 0 8 0 0 0 1 69 
4 0 10 0 0 0 1 68 
9 0 4 0 0 0 1 74 
5 0 7 0 0 0 1 74 
5 0 8 0 0 0 1 74 
7 0 10 0 0 0 1 74 
7 0 10 0 0 0 1 74 
1 0 5 0 0 0 1 74 
0 0 0 0 0 0 1 123 
0 0 0 0 0 0 6 76 77 78 80 81 85 
1 0 0 0 10 0 2 84 82 
4 0 0 0 10 0 2 83 82 
9 0 0 0 8 0 1 79 
6 0 0 0 7 0 1 82 
10 0 0 0 7 0 1 84 
5 0 0 0 10 0 1 83 
6 0 0 0 2 0 1 86 
2 0 0 0 10 0 1 86 
7 0 0 0 4 0 1 86 
5 0 0 0 7 0 1 86 
0 0 0 0 0 0 1 123 
0 0 0 0 0 0 5 88 89 90 93 97 
6 0 0 0 2 0 2 92 91 
6 0 0 0 2 0 2 94 91 
1 0 0 0 10 0 2 96 94 
10 0 0 0 10 0 1 95 
7 0 0 0 8 0 1 94 
10 0 0 0 10 0 1 94 
3 0 0 0 7 0 1 98 
4 0 0 0 8 0 1 98 
6 0 0 0 8 0 1 98 
10 0 0 0 10 0 1 98 
0 0 0 0 0 0 1 123 
0 0 0 0 0 0 3 100 101 105 
10 0 0 0 4 0 3 104 103 102 
5 0 0 0 7 0 3 109 104 103 
2 0 0 0 10 0 4 109 108 107 106 
7 0 0 0 7 0 2 108 106 
4 0 0 0 10 0 2 107 106 
10 0 0 0 9 0 2 107 106 
3 0 0 0 4 0 1 110 
5 0 0 0 5 0 1 110 
3 0 0 0 9 0 1 110 
8 0 0 0 10 0 1 110 
0 0 0 0 0 0 1 123 
0 0 0 0 0 0 3 112 113 121 
4 0 0 0 0 2 4 120 119 115 114 
7 0 0 0 0 10 2 115 114 
9 0 0 0 0 6 3 118 117 116 
5 0 0 0 0 8 1 116 
3 0 0 0 0 9 1 122 
3 0 0 0 0 4 1 122 
10 0 0 0 0 7 1 122 
9 0 0 0 0 10 1 122 
3 0 0 0 0 9 1 122 
3 0 0 0 0 10 1 122 
0 0 0 0 0 0 1 123 
0 0 0 0 0 0 4 124 136 148 160 
0 0 0 0 0 0 6 125 126 128 129 130 131 
3 0 0 5 0 0 2 132 127 
7 0 0 9 0 0 2 134 132 
7 0 0 6 0 0 1 133 
7 0 0 7 0 0 1 133 
10 0 0 4 0 0 1 133 
6 0 0 8 0 0 1 132 
7 0 0 10 0 0 1 132 
10 0 0 6 0 0 1 135 
2 0 0 10 0 0 1 135 
5 0 0 10 0 0 1 135 
0 0 0 0 0 0 1 172 
0 0 0 0 0 0 5 137 138 139 141 146 
8 0 0 5 0 0 3 145 144 140 
4 0 0 10 0 0 3 144 143 142 
6 0 0 7 0 0 2 143 142 
9 0 0 7 0 0 1 142 
3 0 0 6 0 0 1 142 
2 0 0 10 0 0 1 147 
8 0 0 6 0 0 1 147 
8 0 0 9 0 0 1 147 
6 0 0 5 0 0 1 147 
9 0 0 10 0 0 1 147 
0 0 0 0 0 0 1 172 
0 0 0 0 0 0 6 149 150 151 153 157 158 
4 4 0 0 0 0 3 156 155 152 
7 4 0 0 0 0 2 155 152 
2 6 0 0 0 0 2 155 152 
1 10 0 0 0 0 1 154 
5 10 0 0 0 0 1 156 
5 6 0 0 0 0 1 159 
1 10 0 0 0 0 1 159 
5 9 0 0 0 0 1 159 
10 6 0 0 0 0 1 159 
7 10 0 0 0 0 1 159 
0 0 0 0 0 0 1 172 
0 0 0 0 0 0 2 161 162 
6 0 0 0 0 2 5 170 167 165 164 163 
7 0 0 0 0 8 4 166 165 164 163 
3 0 0 0 0 7 2 169 168 
2 0 0 0 0 5 1 169 
8 0 0 0 0 10 1 168 
10 0 0 0 0 10 1 169 
4 0 0 0 0 10 1 168 
8 0 0 0 0 7 1 171 
3 0 0 0 0 10 1 171 
4 0 0 0 0 6 1 171 
0 0 0 0 0 0 1 172 
0 0 0 0 0 0 6 173 175 176 178 181 182 
6 0 3 0 0 0 1 174 
8 0 9 0 0 0 2 180 179 
10 0 5 0 0 0 1 177 
6 0 10 0 0 0 1 177 
1 0 10 0 0 0 1 179 
5 0 6 0 0 0 1 179 
8 0 4 0 0 0 1 183 
7 0 10 0 0 0 1 183 
10 0 10 0 0 0 1 183 
8 0 8 0 0 0 1 183 
0 0 0 0 0 0 0 
